N = 576;
M = 1444;
Edge_Start = [1, 1, 2, 3, 3, 4, 5, 5, 6, 7, 7, 9, 9, 11, 11, 12, 13, 13, 14, 15, 16, 17, 17, 18, 19, 19, 20, 21, 21, 22, 23, 24, 25, 26, 27, 28, 29, 29, 31, 31, 32, 33, 34, 35, 35, 36, 37, 37, 39, 40, 41, 41, 42, 44, 45, 45, 47, 47, 49, 49, 50, 51, 52, 53, 53, 54, 55, 55, 56, 57, 57, 59, 59, 60, 61, 61, 62, 63, 63, 64, 65, 65, 67, 68, 68, 69, 70, 70, 71, 72, 72, 73, 74, 74, 75, 76, 76, 78, 78, 79, 80, 80, 81, 82, 82, 84, 84, 85, 86, 86, 88, 88, 89, 90, 90, 91, 92, 92, 93, 94, 95, 97, 98, 98, 99, 100, 102, 103, 104, 106, 107, 107, 108, 109, 110, 111, 112, 113, 113, 114, 115, 115, 117, 118, 119, 120, 121, 121, 122, 123, 123, 124, 125, 126, 127, 128, 129, 129, 131, 131, 132, 133, 133, 135, 136, 136, 137, 138, 138, 139, 140, 141, 142, 142, 143, 144, 144, 145, 146, 146, 148, 148, 149, 150, 151, 152, 152, 153, 154, 154, 155, 156, 156, 157, 158, 158, 159, 160, 160, 161, 162, 162, 163, 164, 164, 165, 166, 166, 167, 168, 168, 170, 171, 171, 172, 173, 173, 174, 175, 175, 176, 177, 177, 178, 179, 179, 180, 181, 182, 183, 183, 184, 185, 186, 187, 187, 188, 189, 190, 191, 192, 193, 193, 194, 195, 195, 196, 197, 197, 198, 199, 199, 201, 201, 203, 204, 204, 205, 206, 206, 207, 208, 210, 210, 211, 212, 212, 213, 214, 215, 216, 216, 218, 218, 219, 220, 221, 222, 222, 223, 224, 224, 225, 226, 227, 228, 228, 229, 230, 230, 231, 232, 233, 234, 234, 235, 236, 236, 238, 239, 239, 240, 241, 241, 242, 243, 243, 244, 245, 247, 247, 248, 249, 249, 251, 251, 252, 253, 253, 254, 255, 255, 257, 257, 258, 259, 259, 261, 261, 262, 263, 263, 264, 265, 265, 266, 267, 267, 268, 269, 269, 270, 271, 272, 272, 273, 274, 274, 276, 276, 277, 278, 278, 279, 280, 280, 281, 282, 282, 283, 284, 284, 285, 286, 287, 288, 288, 290, 290, 291, 292, 293, 294, 294, 295, 296, 296, 297, 298, 299, 300, 300, 301, 302, 302, 303, 304, 306, 307, 307, 308, 309, 310, 311, 312, 313, 315, 315, 316, 317, 317, 318, 319, 319, 321, 321, 323, 324, 325, 326, 327, 327, 329, 329, 330, 331, 331, 332, 333, 333, 334, 335, 337, 337, 338, 339, 340, 340, 341, 342, 342, 343, 344, 345, 346, 346, 347, 348, 348, 349, 350, 351, 352, 352, 354, 354, 355, 356, 356, 357, 358, 358, 360, 360, 361, 362, 362, 363, 364, 364, 365, 366, 366, 367, 368, 368, 369, 370, 370, 371, 372, 372, 374, 375, 375, 376, 377, 377, 378, 379, 379, 380, 381, 381, 382, 383, 383, 384, 385, 385, 386, 387, 387, 388, 389, 389, 390, 391, 392, 393, 394, 395, 395, 396, 397, 397, 398, 399, 399, 400, 401, 402, 403, 404, 405, 405, 406, 407, 408, 408, 409, 410, 410, 411, 412, 412, 413, 414, 414, 415, 416, 416, 417, 418, 418, 419, 420, 420, 421, 422, 422, 423, 424, 426, 426, 427, 428, 429, 430, 431, 432, 432, 433, 434, 434, 435, 436, 437, 438, 440, 440, 442, 443, 443, 444, 445, 445, 446, 447, 448, 449, 449, 450, 451, 451, 452, 453, 453, 455, 455, 456, 457, 457, 458, 459, 459, 460, 461, 462, 463, 463, 464, 465, 465, 466, 467, 467, 468, 469, 469, 470, 471, 471, 472, 473, 473, 474, 475, 476, 476, 477, 478, 478, 479, 480, 481, 482, 483, 484, 484, 485, 486, 487, 488, 488, 489, 490, 490, 491, 492, 493, 494, 494, 495, 496, 496, 497, 498, 498, 500, 502, 503, 504, 504, 505, 506, 506, 507, 508, 508, 510, 511, 511, 512, 513, 513, 514, 515, 515, 516, 517, 518, 519, 519, 520, 521, 521, 522, 523, 523, 524, 525, 525, 527, 528, 529, 529, 530, 531, 531, 532, 533, 534, 535, 535, 537, 537, 538, 540, 541, 541, 542, 543, 544, 545, 546, 547, 548, 549, 550, 551, 552, 553, 555, 556, 557, 558, 559, 561, 562, 563, 564, 565, 566, 567, 568, 569, 571, 572, 573, 574, 575, 2, 34, 3, 4, 36, 5, 6, 38, 7, 8, 40, 10, 42, 12, 44, 13, 14, 46, 15, 48, 17, 18, 50, 19, 20, 52, 21, 22, 54, 23, 24, 25, 58, 27, 28, 29, 30, 62, 32, 64, 33, 66, 35, 36, 69, 37, 38, 71, 73, 41, 42, 75, 43, 45, 46, 79, 48, 81, 50, 83, 51, 85, 53, 54, 87, 55, 56, 89, 57, 58, 91, 60, 93, 61, 62, 95, 63, 64, 97, 65, 66, 99, 101, 69, 102, 70, 71, 104, 72, 73, 106, 74, 75, 108, 76, 77, 110, 79, 112, 80, 81, 114, 82, 83, 116, 85, 118, 86, 87, 120, 89, 122, 90, 91, 124, 92, 93, 126, 94, 95, 96, 98, 99, 132, 100, 101, 103, 137, 105, 107, 108, 141, 109, 143, 111, 112, 113, 114, 147, 115, 116, 149, 118, 119, 120, 121, 122, 155, 123, 124, 157, 125, 159, 127, 128, 129, 130, 163, 132, 165, 133, 134, 167, 169, 137, 170, 138, 139, 172, 140, 174, 142, 143, 176, 144, 145, 178, 146, 147, 180, 149, 182, 150, 151, 152, 153, 186, 154, 155, 188, 156, 157, 190, 158, 159, 192, 160, 161, 194, 162, 163, 196, 164, 165, 198, 166, 167, 200, 168, 169, 202, 171, 172, 205, 173, 174, 207, 175, 176, 209, 177, 178, 211, 179, 180, 213, 181, 182, 183, 184, 217, 185, 219, 187, 188, 221, 189, 190, 191, 192, 193, 194, 227, 195, 196, 229, 197, 198, 231, 199, 200, 233, 202, 235, 237, 205, 238, 206, 207, 240, 208, 242, 211, 244, 212, 213, 246, 214, 215, 216, 217, 250, 219, 252, 220, 221, 222, 223, 256, 224, 225, 258, 226, 227, 228, 229, 262, 230, 231, 264, 232, 233, 234, 235, 268, 236, 237, 270, 239, 240, 273, 241, 242, 275, 243, 244, 277, 245, 279, 248, 281, 249, 250, 283, 252, 285, 253, 254, 287, 255, 256, 289, 258, 291, 259, 260, 293, 262, 295, 263, 264, 297, 265, 266, 299, 267, 268, 301, 269, 270, 303, 271, 305, 273, 306, 274, 275, 308, 277, 310, 278, 279, 312, 280, 281, 314, 282, 283, 316, 284, 285, 318, 286, 320, 288, 289, 322, 291, 324, 292, 326, 294, 295, 328, 296, 297, 330, 298, 332, 300, 301, 334, 302, 303, 336, 304, 305, 307, 308, 341, 309, 343, 311, 345, 313, 347, 316, 349, 317, 318, 351, 319, 320, 353, 322, 355, 324, 325, 326, 327, 328, 361, 330, 363, 331, 332, 365, 333, 334, 367, 335, 336, 338, 371, 339, 373, 341, 374, 342, 343, 376, 344, 345, 346, 347, 380, 348, 349, 382, 350, 384, 352, 353, 386, 355, 388, 356, 357, 390, 358, 359, 392, 361, 394, 362, 363, 396, 364, 365, 398, 366, 367, 400, 368, 369, 402, 370, 371, 404, 372, 373, 406, 375, 376, 409, 377, 378, 411, 379, 380, 413, 381, 382, 415, 383, 384, 417, 385, 386, 419, 387, 388, 421, 389, 390, 423, 391, 425, 393, 394, 395, 396, 429, 397, 398, 431, 399, 400, 433, 401, 435, 403, 404, 405, 406, 439, 407, 441, 409, 442, 410, 411, 444, 412, 413, 446, 414, 415, 448, 416, 417, 450, 418, 419, 452, 420, 421, 454, 422, 423, 456, 424, 458, 427, 460, 428, 462, 430, 464, 432, 433, 466, 434, 435, 468, 436, 470, 438, 472, 441, 474, 443, 444, 477, 445, 446, 479, 447, 448, 449, 450, 483, 451, 452, 485, 453, 454, 487, 456, 489, 457, 458, 491, 459, 460, 493, 461, 462, 463, 464, 497, 465, 466, 499, 467, 468, 501, 469, 470, 503, 471, 472, 505, 473, 474, 507, 475, 509, 477, 510, 478, 479, 512, 480, 481, 482, 483, 484, 485, 518, 486, 520, 488, 489, 522, 490, 491, 524, 492, 493, 494, 495, 528, 496, 497, 530, 498, 499, 532, 501, 536, 504, 505, 538, 506, 507, 540, 508, 509, 542, 511, 512, 544, 513, 514, 546, 515, 516, 548, 517, 550, 519, 520, 552, 521, 522, 554, 523, 524, 556, 525, 526, 558, 528, 529, 530, 562, 531, 532, 564, 533, 566, 535, 536, 568, 538, 570, 539, 541, 542, 574, 543, 576, 545, 546, 547, 548, 549, 550, 551, 552, 553, 554, 556, 557, 558, 559, 560, 562, 563, 564, 565, 566, 567, 568, 569, 570, 572, 573, 574, 575, 576];
Edge_End = [2, 34, 3, 4, 36, 5, 6, 38, 7, 8, 40, 10, 42, 12, 44, 13, 14, 46, 15, 48, 17, 18, 50, 19, 20, 52, 21, 22, 54, 23, 24, 25, 58, 27, 28, 29, 30, 62, 32, 64, 33, 66, 35, 36, 69, 37, 38, 71, 73, 41, 42, 75, 43, 45, 46, 79, 48, 81, 50, 83, 51, 85, 53, 54, 87, 55, 56, 89, 57, 58, 91, 60, 93, 61, 62, 95, 63, 64, 97, 65, 66, 99, 101, 69, 102, 70, 71, 104, 72, 73, 106, 74, 75, 108, 76, 77, 110, 79, 112, 80, 81, 114, 82, 83, 116, 85, 118, 86, 87, 120, 89, 122, 90, 91, 124, 92, 93, 126, 94, 95, 96, 98, 99, 132, 100, 101, 103, 137, 105, 107, 108, 141, 109, 143, 111, 112, 113, 114, 147, 115, 116, 149, 118, 119, 120, 121, 122, 155, 123, 124, 157, 125, 159, 127, 128, 129, 130, 163, 132, 165, 133, 134, 167, 169, 137, 170, 138, 139, 172, 140, 174, 142, 143, 176, 144, 145, 178, 146, 147, 180, 149, 182, 150, 151, 152, 153, 186, 154, 155, 188, 156, 157, 190, 158, 159, 192, 160, 161, 194, 162, 163, 196, 164, 165, 198, 166, 167, 200, 168, 169, 202, 171, 172, 205, 173, 174, 207, 175, 176, 209, 177, 178, 211, 179, 180, 213, 181, 182, 183, 184, 217, 185, 219, 187, 188, 221, 189, 190, 191, 192, 193, 194, 227, 195, 196, 229, 197, 198, 231, 199, 200, 233, 202, 235, 237, 205, 238, 206, 207, 240, 208, 242, 211, 244, 212, 213, 246, 214, 215, 216, 217, 250, 219, 252, 220, 221, 222, 223, 256, 224, 225, 258, 226, 227, 228, 229, 262, 230, 231, 264, 232, 233, 234, 235, 268, 236, 237, 270, 239, 240, 273, 241, 242, 275, 243, 244, 277, 245, 279, 248, 281, 249, 250, 283, 252, 285, 253, 254, 287, 255, 256, 289, 258, 291, 259, 260, 293, 262, 295, 263, 264, 297, 265, 266, 299, 267, 268, 301, 269, 270, 303, 271, 305, 273, 306, 274, 275, 308, 277, 310, 278, 279, 312, 280, 281, 314, 282, 283, 316, 284, 285, 318, 286, 320, 288, 289, 322, 291, 324, 292, 326, 294, 295, 328, 296, 297, 330, 298, 332, 300, 301, 334, 302, 303, 336, 304, 305, 307, 308, 341, 309, 343, 311, 345, 313, 347, 316, 349, 317, 318, 351, 319, 320, 353, 322, 355, 324, 325, 326, 327, 328, 361, 330, 363, 331, 332, 365, 333, 334, 367, 335, 336, 338, 371, 339, 373, 341, 374, 342, 343, 376, 344, 345, 346, 347, 380, 348, 349, 382, 350, 384, 352, 353, 386, 355, 388, 356, 357, 390, 358, 359, 392, 361, 394, 362, 363, 396, 364, 365, 398, 366, 367, 400, 368, 369, 402, 370, 371, 404, 372, 373, 406, 375, 376, 409, 377, 378, 411, 379, 380, 413, 381, 382, 415, 383, 384, 417, 385, 386, 419, 387, 388, 421, 389, 390, 423, 391, 425, 393, 394, 395, 396, 429, 397, 398, 431, 399, 400, 433, 401, 435, 403, 404, 405, 406, 439, 407, 441, 409, 442, 410, 411, 444, 412, 413, 446, 414, 415, 448, 416, 417, 450, 418, 419, 452, 420, 421, 454, 422, 423, 456, 424, 458, 427, 460, 428, 462, 430, 464, 432, 433, 466, 434, 435, 468, 436, 470, 438, 472, 441, 474, 443, 444, 477, 445, 446, 479, 447, 448, 449, 450, 483, 451, 452, 485, 453, 454, 487, 456, 489, 457, 458, 491, 459, 460, 493, 461, 462, 463, 464, 497, 465, 466, 499, 467, 468, 501, 469, 470, 503, 471, 472, 505, 473, 474, 507, 475, 509, 477, 510, 478, 479, 512, 480, 481, 482, 483, 484, 485, 518, 486, 520, 488, 489, 522, 490, 491, 524, 492, 493, 494, 495, 528, 496, 497, 530, 498, 499, 532, 501, 536, 504, 505, 538, 506, 507, 540, 508, 509, 542, 511, 512, 544, 513, 514, 546, 515, 516, 548, 517, 550, 519, 520, 552, 521, 522, 554, 523, 524, 556, 525, 526, 558, 528, 529, 530, 562, 531, 532, 564, 533, 566, 535, 536, 568, 538, 570, 539, 541, 542, 574, 543, 576, 545, 546, 547, 548, 549, 550, 551, 552, 553, 554, 556, 557, 558, 559, 560, 562, 563, 564, 565, 566, 567, 568, 569, 570, 572, 573, 574, 575, 576, 1, 1, 2, 3, 3, 4, 5, 5, 6, 7, 7, 9, 9, 11, 11, 12, 13, 13, 14, 15, 16, 17, 17, 18, 19, 19, 20, 21, 21, 22, 23, 24, 25, 26, 27, 28, 29, 29, 31, 31, 32, 33, 34, 35, 35, 36, 37, 37, 39, 40, 41, 41, 42, 44, 45, 45, 47, 47, 49, 49, 50, 51, 52, 53, 53, 54, 55, 55, 56, 57, 57, 59, 59, 60, 61, 61, 62, 63, 63, 64, 65, 65, 67, 68, 68, 69, 70, 70, 71, 72, 72, 73, 74, 74, 75, 76, 76, 78, 78, 79, 80, 80, 81, 82, 82, 84, 84, 85, 86, 86, 88, 88, 89, 90, 90, 91, 92, 92, 93, 94, 95, 97, 98, 98, 99, 100, 102, 103, 104, 106, 107, 107, 108, 109, 110, 111, 112, 113, 113, 114, 115, 115, 117, 118, 119, 120, 121, 121, 122, 123, 123, 124, 125, 126, 127, 128, 129, 129, 131, 131, 132, 133, 133, 135, 136, 136, 137, 138, 138, 139, 140, 141, 142, 142, 143, 144, 144, 145, 146, 146, 148, 148, 149, 150, 151, 152, 152, 153, 154, 154, 155, 156, 156, 157, 158, 158, 159, 160, 160, 161, 162, 162, 163, 164, 164, 165, 166, 166, 167, 168, 168, 170, 171, 171, 172, 173, 173, 174, 175, 175, 176, 177, 177, 178, 179, 179, 180, 181, 182, 183, 183, 184, 185, 186, 187, 187, 188, 189, 190, 191, 192, 193, 193, 194, 195, 195, 196, 197, 197, 198, 199, 199, 201, 201, 203, 204, 204, 205, 206, 206, 207, 208, 210, 210, 211, 212, 212, 213, 214, 215, 216, 216, 218, 218, 219, 220, 221, 222, 222, 223, 224, 224, 225, 226, 227, 228, 228, 229, 230, 230, 231, 232, 233, 234, 234, 235, 236, 236, 238, 239, 239, 240, 241, 241, 242, 243, 243, 244, 245, 247, 247, 248, 249, 249, 251, 251, 252, 253, 253, 254, 255, 255, 257, 257, 258, 259, 259, 261, 261, 262, 263, 263, 264, 265, 265, 266, 267, 267, 268, 269, 269, 270, 271, 272, 272, 273, 274, 274, 276, 276, 277, 278, 278, 279, 280, 280, 281, 282, 282, 283, 284, 284, 285, 286, 287, 288, 288, 290, 290, 291, 292, 293, 294, 294, 295, 296, 296, 297, 298, 299, 300, 300, 301, 302, 302, 303, 304, 306, 307, 307, 308, 309, 310, 311, 312, 313, 315, 315, 316, 317, 317, 318, 319, 319, 321, 321, 323, 324, 325, 326, 327, 327, 329, 329, 330, 331, 331, 332, 333, 333, 334, 335, 337, 337, 338, 339, 340, 340, 341, 342, 342, 343, 344, 345, 346, 346, 347, 348, 348, 349, 350, 351, 352, 352, 354, 354, 355, 356, 356, 357, 358, 358, 360, 360, 361, 362, 362, 363, 364, 364, 365, 366, 366, 367, 368, 368, 369, 370, 370, 371, 372, 372, 374, 375, 375, 376, 377, 377, 378, 379, 379, 380, 381, 381, 382, 383, 383, 384, 385, 385, 386, 387, 387, 388, 389, 389, 390, 391, 392, 393, 394, 395, 395, 396, 397, 397, 398, 399, 399, 400, 401, 402, 403, 404, 405, 405, 406, 407, 408, 408, 409, 410, 410, 411, 412, 412, 413, 414, 414, 415, 416, 416, 417, 418, 418, 419, 420, 420, 421, 422, 422, 423, 424, 426, 426, 427, 428, 429, 430, 431, 432, 432, 433, 434, 434, 435, 436, 437, 438, 440, 440, 442, 443, 443, 444, 445, 445, 446, 447, 448, 449, 449, 450, 451, 451, 452, 453, 453, 455, 455, 456, 457, 457, 458, 459, 459, 460, 461, 462, 463, 463, 464, 465, 465, 466, 467, 467, 468, 469, 469, 470, 471, 471, 472, 473, 473, 474, 475, 476, 476, 477, 478, 478, 479, 480, 481, 482, 483, 484, 484, 485, 486, 487, 488, 488, 489, 490, 490, 491, 492, 493, 494, 494, 495, 496, 496, 497, 498, 498, 500, 502, 503, 504, 504, 505, 506, 506, 507, 508, 508, 510, 511, 511, 512, 513, 513, 514, 515, 515, 516, 517, 518, 519, 519, 520, 521, 521, 522, 523, 523, 524, 525, 525, 527, 528, 529, 529, 530, 531, 531, 532, 533, 534, 535, 535, 537, 537, 538, 540, 541, 541, 542, 543, 544, 545, 546, 547, 548, 549, 550, 551, 552, 553, 555, 556, 557, 558, 559, 561, 562, 563, 564, 565, 566, 567, 568, 569, 571, 572, 573, 574, 575];
L = [1, 5, 17, 14, 8, 8, 1, 13, 3, 3, 6, 9, 10, 6, 7, 13, 8, 14, 4, 13, 12, 14, 19, 3, 11, 18, 14, 19, 8, 8, 12, 18, 10, 6, 4, 7, 3, 5, 14, 11, 5, 10, 11, 2, 1, 5, 8, 10, 19, 16, 10, 12, 11, 16, 14, 4, 13, 18, 12, 16, 10, 14, 3, 9, 5, 2, 1, 19, 1, 5, 5, 14, 18, 1, 12, 7, 12, 2, 15, 1, 17, 14, 19, 15, 7, 3, 18, 17, 9, 13, 9, 16, 3, 4, 9, 4, 9, 13, 1, 13, 6, 17, 16, 13, 12, 7, 10, 14, 14, 8, 6, 11, 6, 7, 14, 3, 16, 19, 3, 12, 7, 2, 7, 9, 1, 2, 4, 6, 10, 10, 7, 17, 7, 16, 11, 1, 16, 17, 19, 17, 2, 8, 3, 9, 6, 3, 6, 1, 13, 9, 10, 15, 16, 11, 10, 2, 13, 10, 12, 10, 9, 16, 9, 5, 2, 9, 9, 1, 19, 12, 9, 14, 9, 4, 2, 17, 11, 4, 17, 7, 8, 4, 9, 13, 4, 5, 4, 16, 8, 6, 2, 5, 8, 16, 5, 11, 12, 5, 5, 8, 6, 17, 1, 18, 7, 13, 13, 11, 2, 1, 18, 17, 16, 9, 7, 1, 11, 7, 11, 13, 9, 11, 19, 1, 13, 15, 18, 14, 2, 6, 8, 18, 1, 8, 5, 1, 16, 9, 17, 11, 7, 19, 3, 1, 1, 5, 7, 5, 12, 9, 17, 15, 17, 12, 3, 13, 9, 18, 2, 17, 16, 6, 1, 9, 7, 13, 7, 4, 10, 1, 9, 11, 1, 3, 8, 8, 16, 1, 4, 13, 5, 4, 17, 9, 15, 8, 8, 2, 16, 13, 9, 17, 3, 13, 3, 3, 8, 13, 9, 18, 13, 5, 11, 6, 16, 9, 5, 14, 18, 3, 18, 19, 19, 1, 11, 15, 7, 17, 18, 9, 12, 14, 13, 2, 15, 1, 18, 12, 15, 1, 8, 14, 4, 3, 1, 1, 15, 15, 16, 11, 15, 3, 2, 18, 17, 17, 7, 14, 1, 1, 15, 7, 15, 17, 8, 2, 7, 17, 19, 5, 11, 5, 8, 8, 18, 12, 9, 12, 17, 8, 12, 15, 12, 8, 17, 4, 13, 10, 8, 7, 16, 15, 3, 10, 7, 17, 7, 6, 13, 18, 11, 5, 3, 14, 5, 2, 4, 14, 16, 17, 15, 14, 13, 7, 4, 11, 14, 4, 13, 8, 16, 8, 6, 3, 1, 6, 13, 2, 11, 15, 14, 12, 11, 10, 9, 3, 15, 14, 3, 4, 2, 5, 1, 14, 14, 19, 13, 3, 5, 10, 17, 6, 4, 9, 13, 9, 6, 8, 9, 12, 4, 14, 17, 1, 18, 16, 12, 9, 8, 11, 15, 16, 14, 2, 7, 17, 10, 7, 19, 13, 10, 8, 7, 5, 8, 7, 18, 9, 14, 3, 1, 7, 6, 7, 16, 4, 10, 16, 19, 3, 18, 16, 11, 1, 1, 13, 9, 14, 5, 17, 3, 2, 9, 2, 7, 13, 1, 4, 2, 10, 6, 3, 15, 7, 13, 9, 1, 7, 9, 1, 14, 9, 4, 11, 15, 6, 5, 4, 9, 6, 8, 11, 2, 17, 16, 14, 9, 7, 12, 10, 19, 7, 8, 7, 4, 12, 11, 10, 9, 19, 1, 18, 15, 18, 11, 9, 8, 18, 4, 12, 15, 4, 3, 19, 1, 12, 8, 6, 8, 4, 14, 10, 3, 4, 1, 5, 4, 1, 8, 15, 12, 7, 18, 8, 1, 3, 6, 18, 16, 9, 5, 9, 1, 9, 13, 6, 11, 11, 5, 3, 2, 14, 8, 6, 18, 12, 18, 10, 8, 6, 18, 14, 3, 7, 10, 5, 14, 17, 16, 12, 1, 13, 4, 13, 10, 2, 15, 3, 17, 19, 9, 13, 18, 12, 12, 17, 6, 4, 3, 4, 18, 15, 11, 6, 1, 12, 9, 7, 13, 6, 7, 8, 6, 7, 3, 16, 12, 16, 6, 4, 19, 17, 6, 14, 16, 8, 1, 6, 1, 7, 1, 6, 17, 9, 9, 2, 2, 12, 12, 19, 10, 11, 14, 14, 7, 5, 7, 1, 17, 12, 16, 4, 13, 13, 17, 10, 15, 2, 16, 8, 16, 6, 5, 15, 19, 1, 17, 16, 16, 10, 15, 7, 1, 3, 5, 1, 3, 18, 2, 18, 15, 9, 1, 5, 17, 14, 8, 8, 1, 13, 3, 3, 6, 9, 10, 6, 7, 13, 8, 14, 4, 13, 12, 14, 19, 3, 11, 18, 14, 19, 8, 8, 12, 18, 10, 6, 4, 7, 3, 5, 14, 11, 5, 10, 11, 2, 1, 5, 8, 10, 19, 16, 10, 12, 11, 16, 14, 4, 13, 18, 12, 16, 10, 14, 3, 9, 5, 2, 1, 19, 1, 5, 5, 14, 18, 1, 12, 7, 12, 2, 15, 1, 17, 14, 19, 15, 7, 3, 18, 17, 9, 13, 9, 16, 3, 4, 9, 4, 9, 13, 1, 13, 6, 17, 16, 13, 12, 7, 10, 14, 14, 8, 6, 11, 6, 7, 14, 3, 16, 19, 3, 12, 7, 2, 7, 9, 1, 2, 4, 6, 10, 10, 7, 17, 7, 16, 11, 1, 16, 17, 19, 17, 2, 8, 3, 9, 6, 3, 6, 1, 13, 9, 10, 15, 16, 11, 10, 2, 13, 10, 12, 10, 9, 16, 9, 5, 2, 9, 9, 1, 19, 12, 9, 14, 9, 4, 2, 17, 11, 4, 17, 7, 8, 4, 9, 13, 4, 5, 4, 16, 8, 6, 2, 5, 8, 16, 5, 11, 12, 5, 5, 8, 6, 17, 1, 18, 7, 13, 13, 11, 2, 1, 18, 17, 16, 9, 7, 1, 11, 7, 11, 13, 9, 11, 19, 1, 13, 15, 18, 14, 2, 6, 8, 18, 1, 8, 5, 1, 16, 9, 17, 11, 7, 19, 3, 1, 1, 5, 7, 5, 12, 9, 17, 15, 17, 12, 3, 13, 9, 18, 2, 17, 16, 6, 1, 9, 7, 13, 7, 4, 10, 1, 9, 11, 1, 3, 8, 8, 16, 1, 4, 13, 5, 4, 17, 9, 15, 8, 8, 2, 16, 13, 9, 17, 3, 13, 3, 3, 8, 13, 9, 18, 13, 5, 11, 6, 16, 9, 5, 14, 18, 3, 18, 19, 19, 1, 11, 15, 7, 17, 18, 9, 12, 14, 13, 2, 15, 1, 18, 12, 15, 1, 8, 14, 4, 3, 1, 1, 15, 15, 16, 11, 15, 3, 2, 18, 17, 17, 7, 14, 1, 1, 15, 7, 15, 17, 8, 2, 7, 17, 19, 5, 11, 5, 8, 8, 18, 12, 9, 12, 17, 8, 12, 15, 12, 8, 17, 4, 13, 10, 8, 7, 16, 15, 3, 10, 7, 17, 7, 6, 13, 18, 11, 5, 3, 14, 5, 2, 4, 14, 16, 17, 15, 14, 13, 7, 4, 11, 14, 4, 13, 8, 16, 8, 6, 3, 1, 6, 13, 2, 11, 15, 14, 12, 11, 10, 9, 3, 15, 14, 3, 4, 2, 5, 1, 14, 14, 19, 13, 3, 5, 10, 17, 6, 4, 9, 13, 9, 6, 8, 9, 12, 4, 14, 17, 1, 18, 16, 12, 9, 8, 11, 15, 16, 14, 2, 7, 17, 10, 7, 19, 13, 10, 8, 7, 5, 8, 7, 18, 9, 14, 3, 1, 7, 6, 7, 16, 4, 10, 16, 19, 3, 18, 16, 11, 1, 1, 13, 9, 14, 5, 17, 3, 2, 9, 2, 7, 13, 1, 4, 2, 10, 6, 3, 15, 7, 13, 9, 1, 7, 9, 1, 14, 9, 4, 11, 15, 6, 5, 4, 9, 6, 8, 11, 2, 17, 16, 14, 9, 7, 12, 10, 19, 7, 8, 7, 4, 12, 11, 10, 9, 19, 1, 18, 15, 18, 11, 9, 8, 18, 4, 12, 15, 4, 3, 19, 1, 12, 8, 6, 8, 4, 14, 10, 3, 4, 1, 5, 4, 1, 8, 15, 12, 7, 18, 8, 1, 3, 6, 18, 16, 9, 5, 9, 1, 9, 13, 6, 11, 11, 5, 3, 2, 14, 8, 6, 18, 12, 18, 10, 8, 6, 18, 14, 3, 7, 10, 5, 14, 17, 16, 12, 1, 13, 4, 13, 10, 2, 15, 3, 17, 19, 9, 13, 18, 12, 12, 17, 6, 4, 3, 4, 18, 15, 11, 6, 1, 12, 9, 7, 13, 6, 7, 8, 6, 7, 3, 16, 12, 16, 6, 4, 19, 17, 6, 14, 16, 8, 1, 6, 1, 7, 1, 6, 17, 9, 9, 2, 2, 12, 12, 19, 10, 11, 14, 14, 7, 5, 7, 1, 17, 12, 16, 4, 13, 13, 17, 10, 15, 2, 16, 8, 16, 6, 5, 15, 19, 1, 17, 16, 16, 10, 15, 7, 1, 3, 5, 1, 3, 18, 2, 18, 15, 9];
T = [7, 2, 16, 15, 9, 11, 1, 7, 1, 7, 14, 9, 15, 1, 1, 8, 3, 14, 4, 8, 10, 18, 21, 1, 12, 14, 7, 21, 13, 16, 11, 26, 11, 4, 6, 9, 5, 5, 10, 15, 5, 8, 16, 2, 6, 1, 1, 7, 23, 15, 12, 12, 7, 10, 1, 1, 16, 13, 15, 9, 10, 12, 10, 10, 3, 8, 4, 19, 1, 8, 2, 11, 19, 7, 6, 8, 6, 4, 21, 8, 13, 12, 17, 15, 16, 6, 21, 16, 9, 16, 5, 18, 2, 1, 4, 1, 7, 1, 1, 8, 11, 16, 22, 2, 13, 11, 4, 11, 18, 10, 5, 14, 2, 3, 13, 1, 5, 16, 2, 3, 8, 1, 12, 3, 2, 1, 1, 9, 17, 2, 4, 20, 12, 20, 17, 3, 14, 19, 24, 19, 1, 11, 8, 8, 8, 1, 1, 5, 10, 5, 18, 15, 2, 6, 12, 6, 12, 14, 17, 5, 6, 17, 12, 13, 1, 3, 5, 1, 12, 15, 7, 25, 10, 2, 1, 20, 4, 11, 24, 1, 5, 1, 11, 19, 10, 5, 1, 21, 13, 9, 1, 1, 2, 15, 4, 10, 19, 1, 1, 1, 6, 19, 1, 11, 12, 11, 8, 1, 8, 1, 20, 16, 14, 9, 1, 7, 16, 11, 14, 12, 10, 18, 18, 1, 10, 12, 10, 17, 2, 7, 14, 22, 1, 4, 1, 7, 18, 8, 4, 7, 5, 19, 2, 1, 1, 10, 10, 6, 19, 16, 13, 13, 21, 1, 1, 13, 9, 9, 1, 15, 13, 2, 1, 10, 2, 10, 1, 1, 4, 1, 4, 13, 5, 9, 16, 1, 21, 3, 8, 10, 1, 13, 16, 13, 13, 7, 6, 1, 17, 5, 2, 24, 2, 10, 1, 6, 14, 10, 11, 9, 12, 9, 15, 12, 17, 12, 7, 25, 18, 6, 14, 17, 23, 1, 11, 18, 4, 18, 14, 6, 13, 21, 13, 3, 19, 1, 13, 7, 13, 1, 10, 16, 8, 1, 2, 4, 14, 19, 11, 15, 14, 1, 1, 25, 17, 16, 2, 22, 1, 1, 12, 4, 13, 15, 14, 12, 2, 8, 15, 1, 11, 4, 9, 16, 19, 5, 9, 12, 11, 6, 14, 6, 12, 6, 15, 1, 10, 13, 7, 12, 19, 12, 8, 13, 10, 18, 2, 5, 10, 13, 11, 5, 1, 8, 8, 6, 13, 17, 21, 21, 17, 10, 14, 6, 14, 3, 15, 1, 13, 12, 15, 12, 7, 1, 2, 9, 10, 8, 10, 20, 16, 9, 21, 2, 5, 9, 25, 15, 1, 1, 1, 6, 1, 21, 18, 21, 3, 3, 1, 1, 18, 13, 8, 4, 13, 9, 8, 13, 4, 16, 1, 19, 27, 7, 34, 20, 12, 5, 5, 5, 6, 6, 15, 5, 7, 19, 9, 5, 27, 22, 11, 7, 7, 7, 13, 3, 22, 3, 16, 2, 1, 7, 1, 8, 11, 7, 7, 22, 11, 8, 19, 20, 9, 1, 10, 6, 11, 12, 1, 13, 7, 1, 12, 1, 4, 9, 1, 10, 1, 9, 6, 1, 10, 10, 10, 7, 1, 8, 21, 1, 14, 12, 1, 10, 17, 1, 9, 1, 12, 8, 12, 14, 1, 8, 21, 14, 14, 16, 13, 9, 21, 8, 9, 1, 1, 9, 2, 12, 15, 14, 3, 21, 22, 6, 15, 12, 8, 10, 1, 8, 17, 5, 1, 23, 3, 19, 1, 5, 8, 3, 11, 14, 1, 1, 2, 7, 1, 1, 16, 19, 21, 11, 18, 5, 1, 14, 1, 23, 18, 10, 7, 13, 4, 1, 9, 2, 19, 14, 5, 6, 1, 14, 1, 5, 12, 18, 13, 16, 1, 1, 15, 16, 1, 1, 7, 6, 14, 22, 17, 19, 1, 5, 3, 11, 7, 4, 22, 6, 26, 16, 11, 10, 20, 15, 10, 14, 12, 8, 5, 4, 14, 20, 17, 1, 1, 14, 20, 15, 15, 9, 10, 15, 5, 6, 1, 23, 20, 18, 2, 11, 20, 12, 6, 4, 15, 8, 1, 6, 1, 9, 4, 5, 15, 11, 13, 10, 1, 12, 3, 23, 13, 10, 13, 14, 3, 7, 2, 1, 17, 13, 13, 7, 15, 18, 15, 6, 17, 8, 16, 13, 14, 5, 9, 11, 14, 1, 12, 7, 8, 13, 18, 5, 1, 1, 11, 2, 4, 13, 6, 21, 2, 19, 7, 2, 16, 15, 9, 11, 1, 7, 1, 7, 14, 9, 15, 1, 1, 8, 3, 14, 4, 8, 10, 18, 21, 1, 12, 14, 7, 21, 13, 16, 11, 26, 11, 4, 6, 9, 5, 5, 10, 15, 5, 8, 16, 2, 6, 1, 1, 7, 23, 15, 12, 12, 7, 10, 1, 1, 16, 13, 15, 9, 10, 12, 10, 10, 3, 8, 4, 19, 1, 8, 2, 11, 19, 7, 6, 8, 6, 4, 21, 8, 13, 12, 17, 15, 16, 6, 21, 16, 9, 16, 5, 18, 2, 1, 4, 1, 7, 1, 1, 8, 11, 16, 22, 2, 13, 11, 4, 11, 18, 10, 5, 14, 2, 3, 13, 1, 5, 16, 2, 3, 8, 1, 12, 3, 2, 1, 1, 9, 17, 2, 4, 20, 12, 20, 17, 3, 14, 19, 24, 19, 1, 11, 8, 8, 8, 1, 1, 5, 10, 5, 18, 15, 2, 6, 12, 6, 12, 14, 17, 5, 6, 17, 12, 13, 1, 3, 5, 1, 12, 15, 7, 25, 10, 2, 1, 20, 4, 11, 24, 1, 5, 1, 11, 19, 10, 5, 1, 21, 13, 9, 1, 1, 2, 15, 4, 10, 19, 1, 1, 1, 6, 19, 1, 11, 12, 11, 8, 1, 8, 1, 20, 16, 14, 9, 1, 7, 16, 11, 14, 12, 10, 18, 18, 1, 10, 12, 10, 17, 2, 7, 14, 22, 1, 4, 1, 7, 18, 8, 4, 7, 5, 19, 2, 1, 1, 10, 10, 6, 19, 16, 13, 13, 21, 1, 1, 13, 9, 9, 1, 15, 13, 2, 1, 10, 2, 10, 1, 1, 4, 1, 4, 13, 5, 9, 16, 1, 21, 3, 8, 10, 1, 13, 16, 13, 13, 7, 6, 1, 17, 5, 2, 24, 2, 10, 1, 6, 14, 10, 11, 9, 12, 9, 15, 12, 17, 12, 7, 25, 18, 6, 14, 17, 23, 1, 11, 18, 4, 18, 14, 6, 13, 21, 13, 3, 19, 1, 13, 7, 13, 1, 10, 16, 8, 1, 2, 4, 14, 19, 11, 15, 14, 1, 1, 25, 17, 16, 2, 22, 1, 1, 12, 4, 13, 15, 14, 12, 2, 8, 15, 1, 11, 4, 9, 16, 19, 5, 9, 12, 11, 6, 14, 6, 12, 6, 15, 1, 10, 13, 7, 12, 19, 12, 8, 13, 10, 18, 2, 5, 10, 13, 11, 5, 1, 8, 8, 6, 13, 17, 21, 21, 17, 10, 14, 6, 14, 3, 15, 1, 13, 12, 15, 12, 7, 1, 2, 9, 10, 8, 10, 20, 16, 9, 21, 2, 5, 9, 25, 15, 1, 1, 1, 6, 1, 21, 18, 21, 3, 3, 1, 1, 18, 13, 8, 4, 13, 9, 8, 13, 4, 16, 1, 19, 27, 7, 34, 20, 12, 5, 5, 5, 6, 6, 15, 5, 7, 19, 9, 5, 27, 22, 11, 7, 7, 7, 13, 3, 22, 3, 16, 2, 1, 7, 1, 8, 11, 7, 7, 22, 11, 8, 19, 20, 9, 1, 10, 6, 11, 12, 1, 13, 7, 1, 12, 1, 4, 9, 1, 10, 1, 9, 6, 1, 10, 10, 10, 7, 1, 8, 21, 1, 14, 12, 1, 10, 17, 1, 9, 1, 12, 8, 12, 14, 1, 8, 21, 14, 14, 16, 13, 9, 21, 8, 9, 1, 1, 9, 2, 12, 15, 14, 3, 21, 22, 6, 15, 12, 8, 10, 1, 8, 17, 5, 1, 23, 3, 19, 1, 5, 8, 3, 11, 14, 1, 1, 2, 7, 1, 1, 16, 19, 21, 11, 18, 5, 1, 14, 1, 23, 18, 10, 7, 13, 4, 1, 9, 2, 19, 14, 5, 6, 1, 14, 1, 5, 12, 18, 13, 16, 1, 1, 15, 16, 1, 1, 7, 6, 14, 22, 17, 19, 1, 5, 3, 11, 7, 4, 22, 6, 26, 16, 11, 10, 20, 15, 10, 14, 12, 8, 5, 4, 14, 20, 17, 1, 1, 14, 20, 15, 15, 9, 10, 15, 5, 6, 1, 23, 20, 18, 2, 11, 20, 12, 6, 4, 15, 8, 1, 6, 1, 9, 4, 5, 15, 11, 13, 10, 1, 12, 3, 23, 13, 10, 13, 14, 3, 7, 2, 1, 17, 13, 13, 7, 15, 18, 15, 6, 17, 8, 16, 13, 14, 5, 9, 11, 14, 1, 12, 7, 8, 13, 18, 5, 1, 1, 11, 2, 4, 13, 6, 21, 2, 19];
Lower_Bound = [0, 7, 23, 38, 29, 30, 31, 38, 87, 96, 96, 97, 100, 103, 107, 182, 172, 190, 191, 203, 210, 231, 247, 258, 241, 269, 265, 259, 250, 255, 270, 280, 284, 2, 18, 20, 21, 22, 76, 45, 60, 72, 79, 95, 85, 86, 116, 115, 136, 151, 161, 205, 205, 215, 223, 223, 222, 230, 245, 246, 239, 245, 251, 255, 263, 276, 295, 39, 24, 30, 28, 37, 53, 49, 51, 55, 56, 83, 84, 92, 103, 125, 127, 184, 173, 184, 202, 210, 215, 217, 220, 221, 226, 228, 231, 239, 272, 273, 275, 277, 278, 55, 56, 46, 63, 42, 44, 48, 60, 62, 79, 82, 96, 108, 127, 128, 196, 188, 196, 194, 195, 196, 206, 211, 220, 237, 243, 255, 258, 270, 261, 276, 282, 299, 297, 66, 65, 70, 71, 86, 64, 89, 80, 81, 101, 97, 120, 124, 129, 140, 159, 169, 174, 184, 197, 198, 199, 214, 218, 236, 237, 238, 244, 245, 256, 267, 275, 283, 284, 69, 85, 82, 83, 90, 101, 91, 101, 85, 86, 96, 106, 123, 122, 129, 151, 170, 174, 175, 193, 200, 204, 211, 216, 235, 236, 237, 247, 253, 269, 268, 283, 303, 303, 107, 94, 100, 99, 112, 113, 111, 110, 108, 98, 99, 103, 104, 108, 157, 152, 168, 169, 190, 193, 203, 204, 220, 218, 231, 238, 239, 256, 258, 274, 272, 282, 288, 302, 116, 124, 115, 124, 114, 131, 121, 146, 109, 163, 157, 140, 117, 171, 166, 170, 188, 194, 198, 229, 216, 235, 236, 244, 237, 238, 244, 252, 253, 257, 271, 282, 297, 298, 161, 136, 138, 136, 139, 138, 150, 154, 165, 151, 149, 141, 142, 153, 162, 184, 203, 208, 244, 232, 238, 248, 254, 257, 255, 254, 267, 254, 266, 276, 284, 296, 301, 299, 175, 170, 160, 161, 140, 141, 163, 171, 177, 177, 164, 167, 146, 156, 170, 226, 212, 270, 255, 256, 252, 264, 260, 272, 265, 267, 274, 282, 278, 294, 294, 317, 338, 343, 183, 158, 157, 156, 150, 149, 170, 177, 180, 183, 184, 183, 170, 162, 222, 229, 228, 241, 257, 258, 297, 276, 293, 273, 278, 277, 283, 289, 294, 301, 310, 315, 337, 348, 172, 165, 158, 161, 183, 191, 189, 182, 181, 192, 199, 185, 174, 193, 213, 214, 224, 235, 276, 277, 290, 289, 288, 287, 283, 284, 294, 303, 313, 314, 324, 334, 344, 345, 184, 178, 176, 164, 174, 191, 191, 190, 198, 199, 200, 193, 207, 202, 215, 220, 228, 247, 244, 245, 254, 301, 299, 296, 288, 285, 307, 309, 321, 355, 345, 341, 361, 353, 183, 178, 177, 180, 175, 180, 188, 191, 202, 203, 204, 211, 212, 245, 236, 248, 237, 242, 243, 244, 256, 274, 284, 297, 301, 310, 312, 326, 329, 330, 344, 349, 361, 374, 202, 201, 197, 181, 182, 189, 195, 205, 222, 205, 206, 212, 215, 226, 230, 252, 272, 256, 267, 277, 291, 281, 293, 298, 333, 329, 364, 332, 348, 331, 332, 346, 361, 376, 203, 213, 198, 204, 205, 225, 243, 254, 229, 217, 211, 226, 222, 228, 229, 233, 238, 298, 287, 300, 305, 301, 298, 311, 349, 336, 350, 341, 348, 349, 352, 369, 370, 377, 218, 236, 227, 233, 227, 235, 248, 235, 221, 226, 227, 248, 237, 249, 248, 260, 267, 309, 301, 314, 324, 322, 321, 322, 333, 335, 339, 422, 409, 403, 382, 384, 392];
Upper_Bound = [0, 7, 23, 38, 29, 30, 31, 38, 87, 96, 96, 97, 100, 103, 107, 182, 172, 190, 191, 203, 210, 231, 247, 258, 241, 269, 265, 259, 250, 255, 270, 280, 284, 2, 18, 20, 21, 22, 76, 45, 60, 72, 79, 95, 85, 86, 116, 115, 136, 151, 161, 205, 205, 215, 223, 223, 222, 230, 245, 246, 239, 245, 251, 255, 263, 276, 295, 39, 24, 30, 28, 37, 53, 49, 51, 55, 56, 83, 84, 92, 103, 125, 127, 184, 173, 184, 202, 210, 215, 217, 220, 221, 226, 228, 231, 239, 272, 273, 275, 277, 278, 55, 56, 46, 63, 42, 44, 48, 60, 62, 79, 82, 96, 108, 127, 128, 196, 188, 196, 194, 195, 196, 206, 211, 220, 237, 243, 255, 258, 270, 261, 276, 282, 299, 297, 66, 65, 70, 71, 86, 64, 89, 80, 81, 101, 97, 120, 124, 129, 140, 159, 169, 174, 184, 197, 198, 199, 214, 218, 236, 237, 238, 244, 245, 256, 267, 275, 283, 284, 69, 85, 82, 83, 90, 101, 91, 101, 85, 86, 96, 106, 123, 122, 129, 151, 170, 174, 175, 193, 200, 204, 211, 216, 235, 236, 237, 247, 253, 269, 268, 283, 303, 303, 107, 94, 100, 99, 112, 113, 111, 110, 108, 98, 99, 103, 104, 108, 157, 152, 168, 169, 190, 193, 203, 204, 220, 218, 231, 238, 239, 256, 258, 274, 272, 282, 288, 302, 116, 124, 115, 124, 114, 131, 121, 146, 109, 163, 157, 140, 117, 171, 166, 170, 188, 194, 198, 229, 216, 235, 236, 244, 237, 238, 244, 252, 253, 257, 271, 282, 297, 298, 161, 136, 138, 136, 139, 138, 150, 154, 165, 151, 149, 141, 142, 153, 162, 184, 203, 208, 244, 232, 238, 248, 254, 257, 255, 254, 267, 254, 266, 276, 284, 296, 301, 299, 175, 170, 160, 161, 140, 141, 163, 171, 177, 177, 164, 167, 146, 156, 170, 226, 212, 270, 255, 256, 252, 264, 260, 272, 265, 267, 274, 282, 278, 294, 294, 317, 338, 343, 183, 158, 157, 156, 150, 149, 170, 177, 180, 183, 184, 183, 170, 162, 222, 229, 228, 241, 257, 258, 297, 276, 293, 273, 278, 277, 283, 289, 294, 301, 310, 315, 337, 348, 172, 165, 158, 161, 183, 191, 189, 182, 181, 192, 199, 185, 174, 193, 213, 214, 224, 235, 276, 277, 290, 289, 288, 287, 283, 284, 294, 303, 313, 314, 324, 334, 344, 345, 184, 178, 176, 164, 174, 191, 191, 190, 198, 199, 200, 193, 207, 202, 215, 220, 228, 247, 244, 245, 254, 301, 299, 296, 288, 285, 307, 309, 321, 355, 345, 341, 361, 353, 183, 178, 177, 180, 175, 180, 188, 191, 202, 203, 204, 211, 212, 245, 236, 248, 237, 242, 243, 244, 256, 274, 284, 297, 301, 310, 312, 326, 329, 330, 344, 349, 361, 374, 202, 201, 197, 181, 182, 189, 195, 205, 222, 205, 206, 212, 215, 226, 230, 252, 272, 256, 267, 277, 291, 281, 293, 298, 333, 329, 364, 332, 348, 331, 332, 346, 361, 376, 203, 213, 198, 204, 205, 225, 243, 254, 229, 217, 211, 226, 222, 228, 229, 233, 238, 298, 287, 300, 305, 301, 298, 311, 349, 336, 350, 341, 348, 349, 352, 369, 370, 377, 218, 236, 227, 233, 227, 235, 248, 235, 221, 226, 227, 248, 237, 249, 248, 260, 267, 309, 301, 314, 324, 322, 321, 322, 333, 335, 339, 422, 409, 403, 382, 384, 392];
Start = 1;
End = 576;
Time = 392;
